wcsp 50 3 251 512409557603043100
3 3 3 3 3 3 3 3 3 3 3 3 3 3 3 3 3 3 3 3 3 3 3 3 3 3 3 3 3 3 3 3 3 3 3 3 3 3 3 3 3 3 3 3 3 3 3 3 3 3
2 34 44 0 9
0 0 0
0 1 0
0 2 0
1 0 3
1 1 2
1 2 1
2 0 1
2 1 1
2 2 0
2 11 30 0 9
0 0 3
0 1 0
0 2 2
1 0 0
1 1 0
1 2 0
2 0 1
2 1 2
2 2 2
2 14 26 0 9
0 0 2
0 1 1
0 2 0
1 0 2
1 1 1
1 2 3
2 0 0
2 1 0
2 2 0
2 15 29 0 9
0 0 2
0 1 0
0 2 1
1 0 0
1 1 2
1 2 1
2 0 0
2 1 2
2 2 0
2 23 36 0 9
0 0 0
0 1 2
0 2 3
1 0 0
1 1 1
1 2 3
2 0 1
2 1 0
2 2 0
2 36 48 0 9
0 0 0
0 1 3
0 2 3
1 0 2
1 1 1
1 2 0
2 0 0
2 1 1
2 2 0
2 20 48 0 9
0 0 2
0 1 0
0 2 2
1 0 2
1 1 2
1 2 0
2 0 0
2 1 2
2 2 0
2 16 31 0 9
0 0 1
0 1 0
0 2 1
1 0 0
1 1 0
1 2 0
2 0 3
2 1 3
2 2 2
2 20 47 0 9
0 0 1
0 1 0
0 2 3
1 0 0
1 1 2
1 2 0
2 0 3
2 1 2
2 2 0
2 34 39 0 9
0 0 1
0 1 0
0 2 3
1 0 0
1 1 2
1 2 1
2 0 0
2 1 2
2 2 0
2 31 43 0 9
0 0 0
0 1 0
0 2 1
1 0 1
1 1 3
1 2 0
2 0 0
2 1 2
2 2 1
2 35 49 0 9
0 0 0
0 1 0
0 2 1
1 0 0
1 1 3
1 2 1
2 0 3
2 1 1
2 2 0
2 4 5 0 9
0 0 1
0 1 0
0 2 3
1 0 0
1 1 3
1 2 3
2 0 0
2 1 0
2 2 2
2 17 46 0 9
0 0 0
0 1 2
0 2 2
1 0 2
1 1 2
1 2 1
2 0 0
2 1 0
2 2 0
2 5 13 0 9
0 0 2
0 1 3
0 2 3
1 0 3
1 1 0
1 2 0
2 0 2
2 1 0
2 2 0
2 16 35 0 9
0 0 1
0 1 3
0 2 1
1 0 0
1 1 0
1 2 3
2 0 0
2 1 3
2 2 0
2 35 48 0 9
0 0 1
0 1 0
0 2 2
1 0 0
1 1 1
1 2 0
2 0 0
2 1 2
2 2 3
2 15 23 0 9
0 0 2
0 1 2
0 2 0
1 0 3
1 1 0
1 2 0
2 0 0
2 1 1
2 2 2
2 22 28 0 9
0 0 0
0 1 1
0 2 3
1 0 0
1 1 0
1 2 1
2 0 3
2 1 3
2 2 0
2 0 47 0 9
0 0 0
0 1 0
0 2 2
1 0 3
1 1 3
1 2 1
2 0 0
2 1 2
2 2 0
2 6 33 0 9
0 0 2
0 1 1
0 2 0
1 0 3
1 1 2
1 2 0
2 0 0
2 1 0
2 2 2
2 16 49 0 9
0 0 0
0 1 0
0 2 1
1 0 2
1 1 3
1 2 0
2 0 3
2 1 0
2 2 2
2 5 31 0 9
0 0 0
0 1 3
0 2 0
1 0 3
1 1 3
1 2 0
2 0 0
2 1 1
2 2 1
2 2 6 0 9
0 0 0
0 1 2
0 2 3
1 0 3
1 1 2
1 2 0
2 0 2
2 1 0
2 2 0
2 2 14 0 9
0 0 0
0 1 0
0 2 1
1 0 3
1 1 2
1 2 1
2 0 0
2 1 1
2 2 0
2 13 49 0 9
0 0 1
0 1 1
0 2 3
1 0 2
1 1 0
1 2 0
2 0 0
2 1 0
2 2 2
2 1 34 0 9
0 0 3
0 1 1
0 2 2
1 0 2
1 1 0
1 2 0
2 0 2
2 1 0
2 2 0
2 2 3 0 9
0 0 0
0 1 0
0 2 2
1 0 0
1 1 3
1 2 3
2 0 2
2 1 1
2 2 0
2 24 37 0 9
0 0 3
0 1 0
0 2 3
1 0 0
1 1 1
1 2 3
2 0 1
2 1 0
2 2 0
2 6 39 0 9
0 0 0
0 1 2
0 2 1
1 0 0
1 1 3
1 2 0
2 0 1
2 1 2
2 2 0
2 7 21 0 9
0 0 1
0 1 0
0 2 0
1 0 0
1 1 1
1 2 0
2 0 3
2 1 2
2 2 1
2 1 17 0 9
0 0 0
0 1 0
0 2 0
1 0 0
1 1 2
1 2 1
2 0 2
2 1 2
2 2 2
2 22 36 0 9
0 0 0
0 1 1
0 2 0
1 0 2
1 1 0
1 2 1
2 0 0
2 1 1
2 2 2
2 19 39 0 9
0 0 1
0 1 0
0 2 2
1 0 2
1 1 0
1 2 0
2 0 2
2 1 3
2 2 0
2 39 40 0 9
0 0 1
0 1 1
0 2 0
1 0 3
1 1 1
1 2 0
2 0 1
2 1 0
2 2 0
2 17 45 0 9
0 0 2
0 1 0
0 2 0
1 0 2
1 1 2
1 2 3
2 0 0
2 1 0
2 2 2
2 25 27 0 9
0 0 3
0 1 0
0 2 3
1 0 0
1 1 1
1 2 1
2 0 1
2 1 0
2 2 0
2 39 46 0 9
0 0 2
0 1 3
0 2 0
1 0 3
1 1 0
1 2 3
2 0 0
2 1 0
2 2 2
2 24 29 0 9
0 0 3
0 1 0
0 2 1
1 0 0
1 1 0
1 2 1
2 0 1
2 1 2
2 2 0
2 14 45 0 9
0 0 0
0 1 0
0 2 1
1 0 2
1 1 0
1 2 1
2 0 2
2 1 2
2 2 0
2 26 49 0 9
0 0 3
0 1 0
0 2 1
1 0 3
1 1 0
1 2 0
2 0 0
2 1 1
2 2 3
2 3 30 0 9
0 0 2
0 1 0
0 2 3
1 0 0
1 1 2
1 2 0
2 0 2
2 1 0
2 2 2
2 37 42 0 9
0 0 0
0 1 2
0 2 0
1 0 2
1 1 0
1 2 3
2 0 2
2 1 0
2 2 1
2 19 44 0 9
0 0 3
0 1 0
0 2 2
1 0 1
1 1 0
1 2 3
2 0 0
2 1 0
2 2 2
2 17 25 0 9
0 0 3
0 1 2
0 2 1
1 0 0
1 1 0
1 2 0
2 0 2
2 1 0
2 2 1
2 24 47 0 9
0 0 0
0 1 3
0 2 0
1 0 2
1 1 2
1 2 3
2 0 0
2 1 0
2 2 3
2 4 19 0 9
0 0 0
0 1 0
0 2 2
1 0 0
1 1 2
1 2 1
2 0 3
2 1 0
2 2 1
2 4 35 0 9
0 0 1
0 1 3
0 2 1
1 0 1
1 1 2
1 2 0
2 0 0
2 1 0
2 2 0
2 25 45 0 9
0 0 0
0 1 2
0 2 0
1 0 0
1 1 2
1 2 1
2 0 0
2 1 2
2 2 1
2 20 34 0 9
0 0 0
0 1 0
0 2 0
1 0 1
1 1 0
1 2 2
2 0 3
2 1 1
2 2 2
2 15 31 0 9
0 0 0
0 1 3
0 2 0
1 0 3
1 1 1
1 2 0
2 0 0
2 1 3
2 2 2
2 0 13 0 9
0 0 0
0 1 0
0 2 3
1 0 1
1 1 3
1 2 0
2 0 3
2 1 0
2 2 3
2 3 24 0 9
0 0 2
0 1 3
0 2 0
1 0 3
1 1 0
1 2 0
2 0 2
2 1 0
2 2 3
2 8 10 0 9
0 0 1
0 1 1
0 2 0
1 0 0
1 1 2
1 2 1
2 0 1
2 1 0
2 2 0
2 10 37 0 9
0 0 2
0 1 2
0 2 2
1 0 0
1 1 0
1 2 2
2 0 0
2 1 1
2 2 0
2 23 32 0 9
0 0 3
0 1 3
0 2 0
1 0 0
1 1 0
1 2 3
2 0 3
2 1 1
2 2 0
2 20 30 0 9
0 0 2
0 1 3
0 2 2
1 0 2
1 1 0
1 2 2
2 0 0
2 1 0
2 2 0
2 41 44 0 9
0 0 2
0 1 0
0 2 0
1 0 2
1 1 0
1 2 3
2 0 3
2 1 2
2 2 0
2 17 36 0 9
0 0 3
0 1 0
0 2 3
1 0 2
1 1 1
1 2 0
2 0 0
2 1 1
2 2 0
2 32 36 0 9
0 0 1
0 1 2
0 2 2
1 0 0
1 1 0
1 2 3
2 0 2
2 1 0
2 2 0
2 23 42 0 9
0 0 2
0 1 0
0 2 2
1 0 0
1 1 2
1 2 0
2 0 0
2 1 1
2 2 1
2 23 48 0 9
0 0 1
0 1 2
0 2 1
1 0 0
1 1 0
1 2 2
2 0 2
2 1 0
2 2 0
2 5 16 0 9
0 0 1
0 1 3
0 2 0
1 0 1
1 1 0
1 2 2
2 0 2
2 1 0
2 2 0
2 28 35 0 9
0 0 2
0 1 0
0 2 3
1 0 1
1 1 3
1 2 0
2 0 0
2 1 0
2 2 3
2 30 39 0 9
0 0 1
0 1 0
0 2 0
1 0 0
1 1 0
1 2 1
2 0 3
2 1 2
2 2 2
2 17 26 0 9
0 0 0
0 1 3
0 2 0
1 0 3
1 1 2
1 2 3
2 0 0
2 1 0
2 2 2
2 17 35 0 9
0 0 1
0 1 0
0 2 2
1 0 1
1 1 2
1 2 0
2 0 1
2 1 0
2 2 0
2 27 47 0 9
0 0 1
0 1 2
0 2 0
1 0 3
1 1 0
1 2 0
2 0 3
2 1 1
2 2 0
2 18 40 0 9
0 0 0
0 1 1
0 2 3
1 0 1
1 1 0
1 2 0
2 0 2
2 1 3
2 2 0
2 13 39 0 9
0 0 0
0 1 1
0 2 2
1 0 3
1 1 0
1 2 0
2 0 0
2 1 3
2 2 3
2 1 42 0 9
0 0 2
0 1 2
0 2 2
1 0 1
1 1 0
1 2 0
2 0 2
2 1 0
2 2 0
2 19 28 0 9
0 0 0
0 1 0
0 2 3
1 0 1
1 1 2
1 2 2
2 0 2
2 1 0
2 2 0
2 29 32 0 9
0 0 3
0 1 0
0 2 2
1 0 0
1 1 2
1 2 1
2 0 0
2 1 3
2 2 0
2 34 45 0 9
0 0 1
0 1 3
0 2 0
1 0 3
1 1 0
1 2 1
2 0 0
2 1 2
2 2 0
2 14 25 0 9
0 0 0
0 1 0
0 2 1
1 0 0
1 1 2
1 2 0
2 0 3
2 1 1
2 2 1
2 1 2 0 9
0 0 0
0 1 0
0 2 1
1 0 3
1 1 0
1 2 3
2 0 2
2 1 1
2 2 0
2 0 27 0 9
0 0 0
0 1 0
0 2 0
1 0 1
1 1 2
1 2 1
2 0 0
2 1 2
2 2 2
2 30 49 0 9
0 0 3
0 1 2
0 2 0
1 0 1
1 1 1
1 2 2
2 0 0
2 1 0
2 2 0
2 22 30 0 9
0 0 0
0 1 2
0 2 0
1 0 1
1 1 3
1 2 2
2 0 0
2 1 0
2 2 3
2 8 37 0 9
0 0 0
0 1 0
0 2 1
1 0 0
1 1 2
1 2 1
2 0 3
2 1 0
2 2 1
2 3 6 0 9
0 0 0
0 1 0
0 2 0
1 0 2
1 1 1
1 2 2
2 0 0
2 1 2
2 2 2
2 3 20 0 9
0 0 1
0 1 0
0 2 0
1 0 2
1 1 0
1 2 0
2 0 3
2 1 1
2 2 2
2 3 36 0 9
0 0 0
0 1 1
0 2 1
1 0 3
1 1 0
1 2 0
2 0 0
2 1 2
2 2 2
2 10 48 0 9
0 0 1
0 1 0
0 2 0
1 0 3
1 1 2
1 2 2
2 0 0
2 1 2
2 2 0
2 30 40 0 9
0 0 0
0 1 1
0 2 0
1 0 2
1 1 0
1 2 1
2 0 3
2 1 0
2 2 3
2 0 49 0 9
0 0 2
0 1 3
0 2 0
1 0 0
1 1 0
1 2 2
2 0 2
2 1 1
2 2 0
2 5 41 0 9
0 0 2
0 1 3
0 2 1
1 0 0
1 1 3
1 2 0
2 0 0
2 1 0
2 2 2
2 12 45 0 9
0 0 0
0 1 0
0 2 1
1 0 0
1 1 1
1 2 0
2 0 3
2 1 3
2 2 1
2 6 9 0 9
0 0 0
0 1 3
0 2 3
1 0 1
1 1 2
1 2 0
2 0 3
2 1 0
2 2 0
2 2 36 0 9
0 0 0
0 1 1
0 2 0
1 0 1
1 1 3
1 2 0
2 0 0
2 1 1
2 2 1
2 25 35 0 9
0 0 3
0 1 0
0 2 3
1 0 0
1 1 3
1 2 0
2 0 2
2 1 0
2 2 3
2 41 47 0 9
0 0 2
0 1 3
0 2 1
1 0 3
1 1 0
1 2 0
2 0 0
2 1 1
2 2 0
2 7 49 0 9
0 0 1
0 1 1
0 2 0
1 0 0
1 1 0
1 2 1
2 0 2
2 1 2
2 2 0
2 15 28 0 9
0 0 0
0 1 0
0 2 3
1 0 3
1 1 0
1 2 0
2 0 2
2 1 1
2 2 1
2 0 33 0 9
0 0 0
0 1 0
0 2 0
1 0 2
1 1 2
1 2 2
2 0 0
2 1 3
2 2 1
2 9 37 0 9
0 0 0
0 1 2
0 2 0
1 0 2
1 1 2
1 2 1
2 0 0
2 1 1
2 2 0
2 35 41 0 9
0 0 1
0 1 0
0 2 2
1 0 0
1 1 3
1 2 0
2 0 0
2 1 2
2 2 3
2 21 24 0 9
0 0 2
0 1 0
0 2 1
1 0 0
1 1 1
1 2 2
2 0 0
2 1 0
2 2 1
2 5 20 0 9
0 0 2
0 1 0
0 2 0
1 0 3
1 1 3
1 2 3
2 0 2
2 1 0
2 2 0
2 2 43 0 9
0 0 0
0 1 3
0 2 0
1 0 0
1 1 1
1 2 1
2 0 0
2 1 3
2 2 2
2 25 34 0 9
0 0 0
0 1 1
0 2 2
1 0 1
1 1 0
1 2 2
2 0 0
2 1 2
2 2 0
2 12 21 0 9
0 0 3
0 1 1
0 2 0
1 0 2
1 1 0
1 2 3
2 0 3
2 1 0
2 2 0
2 1 7 0 9
0 0 1
0 1 2
0 2 0
1 0 0
1 1 2
1 2 0
2 0 1
2 1 0
2 2 3
2 0 11 0 9
0 0 0
0 1 0
0 2 3
1 0 2
1 1 2
1 2 1
2 0 0
2 1 2
2 2 0
2 12 23 0 9
0 0 2
0 1 0
0 2 1
1 0 0
1 1 1
1 2 3
2 0 0
2 1 1
2 2 0
2 21 34 0 9
0 0 2
0 1 2
0 2 0
1 0 0
1 1 2
1 2 0
2 0 0
2 1 2
2 2 1
2 11 39 0 9
0 0 0
0 1 3
0 2 2
1 0 3
1 1 0
1 2 0
2 0 1
2 1 3
2 2 0
2 29 48 0 9
0 0 3
0 1 3
0 2 1
1 0 0
1 1 0
1 2 1
2 0 2
2 1 0
2 2 0
2 40 48 0 9
0 0 2
0 1 1
0 2 2
1 0 0
1 1 0
1 2 0
2 0 1
2 1 0
2 2 3
2 24 48 0 9
0 0 2
0 1 3
0 2 0
1 0 0
1 1 2
1 2 3
2 0 2
2 1 0
2 2 0
2 39 43 0 9
0 0 3
0 1 1
0 2 2
1 0 0
1 1 0
1 2 0
2 0 0
2 1 1
2 2 2
2 11 34 0 9
0 0 1
0 1 0
0 2 0
1 0 1
1 1 3
1 2 1
2 0 2
2 1 0
2 2 0
2 2 23 0 9
0 0 0
0 1 1
0 2 0
1 0 1
1 1 1
1 2 0
2 0 3
2 1 3
2 2 0
2 0 38 0 9
0 0 0
0 1 0
0 2 2
1 0 0
1 1 3
1 2 2
2 0 2
2 1 0
2 2 2
2 13 26 0 9
0 0 0
0 1 0
0 2 3
1 0 0
1 1 0
1 2 2
2 0 1
2 1 2
2 2 1
2 33 47 0 9
0 0 0
0 1 0
0 2 3
1 0 0
1 1 3
1 2 0
2 0 3
2 1 3
2 2 1
2 3 21 0 9
0 0 0
0 1 1
0 2 0
1 0 3
1 1 1
1 2 3
2 0 0
2 1 2
2 2 0
2 2 5 0 9
0 0 0
0 1 2
0 2 3
1 0 0
1 1 3
1 2 1
2 0 0
2 1 0
2 2 1
2 22 46 0 9
0 0 2
0 1 2
0 2 3
1 0 0
1 1 0
1 2 1
2 0 1
2 1 0
2 2 0
2 8 25 0 9
0 0 1
0 1 0
0 2 0
1 0 0
1 1 3
1 2 0
2 0 3
2 1 1
2 2 3
2 40 46 0 9
0 0 2
0 1 3
0 2 0
1 0 0
1 1 0
1 2 3
2 0 2
2 1 1
2 2 0
2 34 48 0 9
0 0 0
0 1 1
0 2 0
1 0 1
1 1 1
1 2 0
2 0 3
2 1 0
2 2 1
2 3 7 0 9
0 0 0
0 1 2
0 2 3
1 0 0
1 1 1
1 2 0
2 0 1
2 1 0
2 2 2
2 19 23 0 9
0 0 0
0 1 2
0 2 2
1 0 1
1 1 0
1 2 2
2 0 0
2 1 0
2 2 1
2 29 40 0 9
0 0 0
0 1 1
0 2 0
1 0 0
1 1 0
1 2 2
2 0 1
2 1 2
2 2 3
2 4 34 0 9
0 0 2
0 1 0
0 2 0
1 0 1
1 1 3
1 2 3
2 0 1
2 1 0
2 2 0
2 19 46 0 9
0 0 0
0 1 3
0 2 1
1 0 0
1 1 0
1 2 0
2 0 2
2 1 3
2 2 1
2 21 43 0 9
0 0 1
0 1 2
0 2 0
1 0 1
1 1 0
1 2 0
2 0 2
2 1 3
2 2 0
2 18 38 0 9
0 0 3
0 1 1
0 2 0
1 0 0
1 1 3
1 2 3
2 0 1
2 1 0
2 2 0
2 5 27 0 9
0 0 1
0 1 0
0 2 1
1 0 2
1 1 1
1 2 0
2 0 0
2 1 0
2 2 3
2 40 45 0 9
0 0 0
0 1 3
0 2 0
1 0 3
1 1 1
1 2 3
2 0 0
2 1 2
2 2 0
2 8 33 0 9
0 0 0
0 1 3
0 2 0
1 0 3
1 1 0
1 2 3
2 0 1
2 1 3
2 2 0
2 7 15 0 9
0 0 3
0 1 3
0 2 0
1 0 2
1 1 2
1 2 0
2 0 0
2 1 3
2 2 0
2 1 9 0 9
0 0 3
0 1 0
0 2 2
1 0 0
1 1 0
1 2 2
2 0 1
2 1 1
2 2 0
2 44 45 0 9
0 0 0
0 1 1
0 2 3
1 0 1
1 1 0
1 2 0
2 0 0
2 1 2
2 2 3
2 7 27 0 9
0 0 0
0 1 0
0 2 0
1 0 2
1 1 2
1 2 3
2 0 0
2 1 1
2 2 1
2 3 49 0 9
0 0 3
0 1 1
0 2 2
1 0 1
1 1 0
1 2 0
2 0 3
2 1 0
2 2 0
2 13 43 0 9
0 0 0
0 1 0
0 2 2
1 0 3
1 1 1
1 2 3
2 0 0
2 1 2
2 2 0
2 5 25 0 9
0 0 0
0 1 1
0 2 3
1 0 0
1 1 1
1 2 0
2 0 1
2 1 3
2 2 0
2 34 35 0 9
0 0 2
0 1 0
0 2 2
1 0 0
1 1 3
1 2 0
2 0 0
2 1 3
2 2 3
2 5 29 0 9
0 0 1
0 1 0
0 2 0
1 0 3
1 1 2
1 2 0
2 0 0
2 1 1
2 2 3
2 19 20 0 9
0 0 0
0 1 0
0 2 3
1 0 0
1 1 0
1 2 2
2 0 3
2 1 3
2 2 2
2 27 49 0 9
0 0 0
0 1 1
0 2 0
1 0 2
1 1 0
1 2 0
2 0 1
2 1 3
2 2 3
2 17 40 0 9
0 0 2
0 1 3
0 2 0
1 0 0
1 1 3
1 2 0
2 0 1
2 1 0
2 2 2
2 23 46 0 9
0 0 0
0 1 2
0 2 2
1 0 2
1 1 2
1 2 0
2 0 0
2 1 2
2 2 0
2 4 29 0 9
0 0 3
0 1 2
0 2 1
1 0 0
1 1 1
1 2 0
2 0 1
2 1 0
2 2 0
2 22 39 0 9
0 0 0
0 1 0
0 2 3
1 0 0
1 1 2
1 2 2
2 0 2
2 1 0
2 2 3
2 42 45 0 9
0 0 2
0 1 0
0 2 0
1 0 0
1 1 1
1 2 0
2 0 3
2 1 1
2 2 3
2 28 44 0 9
0 0 0
0 1 1
0 2 0
1 0 0
1 1 1
1 2 3
2 0 2
2 1 2
2 2 0
2 11 40 0 9
0 0 3
0 1 1
0 2 0
1 0 2
1 1 0
1 2 0
2 0 0
2 1 1
2 2 3
2 34 40 0 9
0 0 0
0 1 0
0 2 3
1 0 0
1 1 3
1 2 2
2 0 0
2 1 3
2 2 3
2 20 24 0 9
0 0 0
0 1 1
0 2 3
1 0 2
1 1 0
1 2 0
2 0 0
2 1 2
2 2 3
2 1 44 0 9
0 0 2
0 1 1
0 2 0
1 0 3
1 1 0
1 2 0
2 0 0
2 1 1
2 2 3
2 5 45 0 9
0 0 3
0 1 1
0 2 3
1 0 0
1 1 0
1 2 0
2 0 1
2 1 0
2 2 2
2 11 36 0 9
0 0 2
0 1 2
0 2 0
1 0 0
1 1 3
1 2 0
2 0 2
2 1 2
2 2 0
2 10 31 0 9
0 0 0
0 1 1
0 2 0
1 0 2
1 1 0
1 2 2
2 0 0
2 1 2
2 2 3
2 14 31 0 9
0 0 2
0 1 2
0 2 0
1 0 3
1 1 3
1 2 3
2 0 0
2 1 0
2 2 0
2 19 36 0 9
0 0 0
0 1 2
0 2 0
1 0 1
1 1 2
1 2 1
2 0 3
2 1 0
2 2 0
2 11 33 0 9
0 0 2
0 1 3
0 2 0
1 0 1
1 1 2
1 2 0
2 0 2
2 1 0
2 2 0
2 20 43 0 9
0 0 2
0 1 0
0 2 0
1 0 3
1 1 1
1 2 1
2 0 0
2 1 3
2 2 0
2 45 46 0 9
0 0 1
0 1 0
0 2 0
1 0 0
1 1 1
1 2 3
2 0 0
2 1 1
2 2 1
2 2 37 0 9
0 0 0
0 1 0
0 2 1
1 0 1
1 1 0
1 2 2
2 0 2
2 1 1
2 2 0
2 16 24 0 9
0 0 0
0 1 3
0 2 0
1 0 2
1 1 3
1 2 0
2 0 2
2 1 0
2 2 3
2 3 42 0 9
0 0 1
0 1 0
0 2 0
1 0 3
1 1 1
1 2 0
2 0 2
2 1 3
2 2 0
2 18 49 0 9
0 0 2
0 1 2
0 2 0
1 0 0
1 1 0
1 2 3
2 0 1
2 1 0
2 2 2
2 10 23 0 9
0 0 3
0 1 0
0 2 1
1 0 0
1 1 2
1 2 1
2 0 0
2 1 0
2 2 3
2 1 26 0 9
0 0 2
0 1 2
0 2 3
1 0 3
1 1 2
1 2 0
2 0 0
2 1 0
2 2 0
2 9 10 0 9
0 0 0
0 1 1
0 2 3
1 0 0
1 1 0
1 2 3
2 0 0
2 1 2
2 2 3
2 4 25 0 9
0 0 0
0 1 2
0 2 0
1 0 3
1 1 2
1 2 0
2 0 3
2 1 3
2 2 0
2 16 26 0 9
0 0 0
0 1 0
0 2 3
1 0 3
1 1 3
1 2 3
2 0 1
2 1 0
2 2 0
2 1 38 0 9
0 0 0
0 1 1
0 2 1
1 0 0
1 1 2
1 2 1
2 0 1
2 1 0
2 2 0
2 16 19 0 9
0 0 2
0 1 3
0 2 2
1 0 0
1 1 0
1 2 1
2 0 1
2 1 0
2 2 0
2 40 49 0 9
0 0 1
0 1 0
0 2 0
1 0 0
1 1 2
1 2 3
2 0 2
2 1 0
2 2 3
2 6 13 0 9
0 0 1
0 1 0
0 2 2
1 0 0
1 1 1
1 2 1
2 0 0
2 1 0
2 2 1
2 29 43 0 9
0 0 2
0 1 0
0 2 2
1 0 0
1 1 0
1 2 1
2 0 1
2 1 3
2 2 0
2 39 47 0 9
0 0 0
0 1 2
0 2 1
1 0 0
1 1 0
1 2 3
2 0 2
2 1 0
2 2 2
2 23 33 0 9
0 0 1
0 1 2
0 2 0
1 0 0
1 1 0
1 2 3
2 0 1
2 1 2
2 2 0
2 6 49 0 9
0 0 3
0 1 1
0 2 0
1 0 3
1 1 1
1 2 0
2 0 3
2 1 0
2 2 0
2 25 42 0 9
0 0 0
0 1 2
0 2 0
1 0 0
1 1 2
1 2 0
2 0 2
2 1 2
2 2 1
2 25 40 0 9
0 0 0
0 1 3
0 2 2
1 0 0
1 1 0
1 2 2
2 0 3
2 1 0
2 2 2
2 2 49 0 9
0 0 1
0 1 3
0 2 2
1 0 0
1 1 0
1 2 2
2 0 2
2 1 0
2 2 0
2 24 32 0 9
0 0 0
0 1 1
0 2 3
1 0 3
1 1 0
1 2 3
2 0 1
2 1 0
2 2 0
2 8 20 0 9
0 0 2
0 1 3
0 2 0
1 0 2
1 1 0
1 2 0
2 0 2
2 1 0
2 2 2
2 8 47 0 9
0 0 0
0 1 0
0 2 0
1 0 0
1 1 1
1 2 2
2 0 3
2 1 3
2 2 3
2 29 39 0 9
0 0 2
0 1 2
0 2 0
1 0 0
1 1 2
1 2 0
2 0 0
2 1 2
2 2 1
2 11 23 0 9
0 0 1
0 1 0
0 2 3
1 0 1
1 1 0
1 2 0
2 0 0
2 1 1
2 2 1
2 23 47 0 9
0 0 1
0 1 3
0 2 0
1 0 2
1 1 0
1 2 0
2 0 2
2 1 3
2 2 0
2 10 38 0 9
0 0 3
0 1 0
0 2 1
1 0 0
1 1 1
1 2 0
2 0 1
2 1 0
2 2 1
2 1 40 0 9
0 0 3
0 1 0
0 2 3
1 0 3
1 1 0
1 2 1
2 0 0
2 1 0
2 2 2
2 3 39 0 9
0 0 2
0 1 0
0 2 0
1 0 3
1 1 3
1 2 1
2 0 3
2 1 0
2 2 0
2 8 31 0 9
0 0 2
0 1 0
0 2 0
1 0 2
1 1 0
1 2 0
2 0 2
2 1 3
2 2 2
2 15 44 0 9
0 0 0
0 1 1
0 2 1
1 0 0
1 1 0
1 2 0
2 0 2
2 1 2
2 2 1
2 46 49 0 9
0 0 0
0 1 2
0 2 1
1 0 0
1 1 0
1 2 3
2 0 2
2 1 0
2 2 1
2 30 33 0 9
0 0 0
0 1 1
0 2 1
1 0 0
1 1 3
1 2 0
2 0 0
2 1 1
2 2 3
2 9 12 0 9
0 0 2
0 1 3
0 2 0
1 0 0
1 1 2
1 2 0
2 0 0
2 1 3
2 2 3
2 33 38 0 9
0 0 1
0 1 2
0 2 0
1 0 0
1 1 2
1 2 0
2 0 3
2 1 3
2 2 0
2 46 48 0 9
0 0 0
0 1 0
0 2 3
1 0 0
1 1 3
1 2 2
2 0 1
2 1 0
2 2 2
2 21 29 0 9
0 0 0
0 1 3
0 2 1
1 0 1
1 1 0
1 2 2
2 0 0
2 1 0
2 2 1
2 8 23 0 9
0 0 0
0 1 1
0 2 0
1 0 2
1 1 3
1 2 2
2 0 0
2 1 0
2 2 3
2 18 27 0 9
0 0 1
0 1 0
0 2 3
1 0 3
1 1 1
1 2 0
2 0 0
2 1 0
2 2 2
1 0 512409557603043100 3
0 0
1 1
2 0
1 1 512409557603043100 3
0 2
1 0
2 3
1 2 512409557603043100 3
0 3
1 1
2 0
1 3 512409557603043100 3
0 0
1 3
2 0
1 4 512409557603043100 3
0 0
1 1
2 0
1 5 512409557603043100 3
0 0
1 2
2 3
1 6 512409557603043100 3
0 0
1 2
2 2
1 7 512409557603043100 3
0 1
1 0
2 1
1 8 512409557603043100 3
0 0
1 1
2 0
1 9 512409557603043100 3
0 0
1 2
2 1
1 10 512409557603043100 3
0 0
1 0
2 2
1 11 512409557603043100 3
0 0
1 1
2 0
1 12 512409557603043100 3
0 0
1 0
2 2
1 13 512409557603043100 3
0 2
1 1
2 0
1 14 512409557603043100 3
0 0
1 0
2 3
1 15 512409557603043100 3
0 2
1 0
2 1
1 16 512409557603043100 3
0 0
1 0
2 2
1 17 512409557603043100 3
0 2
1 0
2 0
1 18 512409557603043100 3
0 1
1 0
2 0
1 19 512409557603043100 3
0 3
1 2
2 0
1 20 512409557603043100 3
0 0
1 0
2 0
1 21 512409557603043100 3
0 0
1 1
2 2
1 22 512409557603043100 3
0 0
1 2
2 1
1 23 512409557603043100 3
0 0
1 3
2 3
1 24 512409557603043100 3
0 1
1 1
2 0
1 25 512409557603043100 3
0 0
1 1
2 1
1 26 512409557603043100 3
0 1
1 3
2 0
1 27 512409557603043100 3
0 0
1 1
2 3
1 28 512409557603043100 3
0 0
1 1
2 1
1 29 512409557603043100 3
0 2
1 3
2 0
1 30 512409557603043100 3
0 2
1 0
2 1
1 31 512409557603043100 3
0 1
1 0
2 0
1 32 512409557603043100 3
0 0
1 0
2 1
1 33 512409557603043100 3
0 0
1 0
2 2
1 34 512409557603043100 3
0 0
1 1
2 2
1 35 512409557603043100 3
0 3
1 2
2 0
1 36 512409557603043100 3
0 1
1 0
2 1
1 37 512409557603043100 3
0 3
1 1
2 0
1 38 512409557603043100 3
0 0
1 1
2 1
1 39 512409557603043100 3
0 3
1 1
2 0
1 40 512409557603043100 3
0 1
1 0
2 2
1 41 512409557603043100 3
0 1
1 1
2 0
1 42 512409557603043100 3
0 0
1 1
2 1
1 43 512409557603043100 3
0 0
1 1
2 0
1 44 512409557603043100 3
0 2
1 0
2 3
1 45 512409557603043100 3
0 0
1 2
2 0
1 46 512409557603043100 3
0 3
1 0
2 3
1 47 512409557603043100 3
0 0
1 2
2 1
1 48 512409557603043100 3
0 0
1 1
2 1
1 49 512409557603043100 3
0 1
1 1
2 0
0 30 0
